1192
787
373
198
1819
754
2158
625
160
1749
1646
1829
273
1718
2008
1412
193
1959
1929
75
137
114
590
2041
1492
968
1455
2003
1475
2166
1134
868
1792
1790
1488
1150
304
628
1135
1572
627
527
474
1306
2049
809
1125
675
636
1573
